Maximize
F - f1 - f2

Subject to
F - 9y3 - 3y16 - 0y22 - 6y26 - 12y58 - 9y66 - 0y84 - 6y87 - 12y88 - 0y97 - 9y109 - 9y114 - 9y126 - 0y169 - 12y187 - 12y206 - 9y212 - 3y215 - 3y240 - 12y251 - 3y254 - 9y261 = 0
f1 - 0.006885s3 - 0.006885s16 - 0.006885s22 - 0.006885s26 - 0.006885s58 - 0.006885s66 - 0.006885s84 - 0.006885s87 - 0.006885s88 - 0.006885s97 - 0.006885s109 - 0.006885s114 - 0.006885s126 - 0.006885s169 - 0.006885s187 - 0.006885s206 - 0.006885s212 - 0.006885s215 - 0.006885s240 - 0.006885s251 - 0.006885s254 - 0.006885s261  = 0
f2 - 1.42y3 - 1.13y16 - 2.17y22 - 2.31y26 - 2.38y58 - 1.38y66 - 2.19y84 - 1.97y87 - 1.56y88 - 2.05y97 - 2.18y109 - 2.23y114 - 2.43y126 - 2.01y169 - 1.63y187 - 1.75y206 - 2.18y212 - 1.24y215 - 2.10y240 - 1.44y251 - 1.31y254 - 2.26y261 = 0

x119x22x1 + x119x26x1 + x119x66x1 + x119x87x1 + x119x88x1 + x119x114x1 + x119x126x1 + x119x169x1 + x119x187x1 + x119x206x1 + x119x251x1 + x119x261x1 
<= 1
x22x66x1 + x22x88x1 + x22x187x1 + x22x206x1 + x22x251x1 
<= 2
x57x22x1 + x57x26x1 + x57x66x1 + x57x87x1 + x57x88x1 + x57x114x1 + x57x126x1 + x57x169x1 + x57x187x1 + x57x206x1 + x57x251x1 + x57x261x1 
<= 1
x245x22x1 + x245x26x1 + x245x66x1 + x245x87x1 + x245x88x1 + x245x114x1 + x245x126x1 + x245x169x1 + x245x187x1 + x245x206x1 + x245x251x1 + x245x261x1 
<= 1
x191x22x1 + x191x26x1 + x191x66x1 + x191x87x1 + x191x88x1 + x191x114x1 + x191x126x1 + x191x169x1 + x191x187x1 + x191x206x1 + x191x251x1 + x191x261x1 
<= 1
x216x22x1 + x216x26x1 + x216x66x1 + x216x87x1 + x216x88x1 + x216x114x1 + x216x126x1 + x216x169x1 + x216x187x1 + x216x206x1 + x216x251x1 + x216x261x1 
<= 1

x201x3x2 + x201x16x2 + x201x58x2 + x201x88x2 + x201x97x2 + x201x109x2 + x201x114x2 + x201x187x2 + x201x215x2 + x201x240x2 + x201x254x2 
<= 1
x4x3x2 + x4x16x2 + x4x58x2 + x4x88x2 + x4x97x2 + x4x109x2 + x4x114x2 + x4x187x2 + x4x215x2 + x4x240x2 + x4x254x2 
<= 2
x119x3x2 + x119x16x2 + x119x58x2 + x119x88x2 + x119x97x2 + x119x109x2 + x119x114x2 + x119x187x2 + x119x215x2 + x119x240x2 + x119x254x2 
<= 1
x97x3x2 + x97x16x2 + x97x187x2 + x97x215x2 + x97x254x2 
<= 1
x110x3x2 + x110x16x2 + x110x58x2 + x110x88x2 + x110x97x2 + x110x109x2 + x110x114x2 + x110x187x2 + x110x215x2 + x110x240x2 + x110x254x2 
<= 1
x231x3x2 + x231x16x2 + x231x58x2 + x231x88x2 + x231x97x2 + x231x109x2 + x231x114x2 + x231x187x2 + x231x215x2 + x231x240x2 + x231x254x2 
<= 1
x245x3x2 + x245x16x2 + x245x58x2 + x245x88x2 + x245x97x2 + x245x109x2 + x245x114x2 + x245x187x2 + x245x215x2 + x245x240x2 + x245x254x2 
<= 1
x216x3x2 + x216x16x2 + x216x58x2 + x216x88x2 + x216x97x2 + x216x109x2 + x216x114x2 + x216x187x2 + x216x215x2 + x216x240x2 + x216x254x2 
<= 1

x257x3x3 + x257x206x3 + x257x251x3 + x257x254x3 
<= 2
x201x3x3 + x201x58x3 + x201x84x3 + x201x97x3 + x201x126x3 + x201x206x3 + x201x212x3 + x201x251x3 + x201x254x3 + x201x261x3 
<= 1
x84x3x3 + x84x206x3 + x84x251x3 + x84x254x3 
<= 2
x97x3x3 + x97x251x3 + x97x254x3 
<= 1
x231x3x3 + x231x58x3 + x231x84x3 + x231x97x3 + x231x126x3 + x231x206x3 + x231x212x3 + x231x251x3 + x231x254x3 + x231x261x3 
<= 1
x57x3x3 + x57x58x3 + x57x84x3 + x57x97x3 + x57x126x3 + x57x206x3 + x57x212x3 + x57x251x3 + x57x254x3 + x57x261x3 
<= 1
x191x3x3 + x191x58x3 + x191x84x3 + x191x97x3 + x191x126x3 + x191x206x3 + x191x212x3 + x191x251x3 + x191x254x3 + x191x261x3 
<= 1

x201x3x2 + x4x3x2 + x119x3x2 + x97x3x2 + x110x3x2 + x231x3x2 + x245x3x2 + x216x3x2 
- x3x0x2

= 0
x257x3x3 + x201x3x3 + x84x3x3 + x97x3x3 + x231x3x3 + x57x3x3 + x191x3x3 
- x3x0x3

= 0


x201x16x2 + x4x16x2 + x119x16x2 + x97x16x2 + x110x16x2 + x231x16x2 + x245x16x2 + x216x16x2 
- x16x0x2

= 0


x119x22x1 + x57x22x1 + x245x22x1 + x191x22x1 + x216x22x1 
- x22x0x1

= 0



x119x26x1 + x57x26x1 + x245x26x1 + x191x26x1 + x216x26x1 
- x26x0x1

= 0




x201x58x2 + x4x58x2 + x119x58x2 + x110x58x2 + x231x58x2 + x245x58x2 + x216x58x2 
- x58x0x2

= 0
x201x58x3 + x231x58x3 + x57x58x3 + x191x58x3 
- x58x0x3

= 0

x119x66x1 + x22x66x1 + x57x66x1 + x245x66x1 + x191x66x1 + x216x66x1 
- x66x0x1

= 0





x201x84x3 + x231x84x3 + x57x84x3 + x191x84x3 
- x84x0x3

= 0

x119x87x1 + x57x87x1 + x245x87x1 + x191x87x1 + x216x87x1 
- x87x0x1

= 0



x119x88x1 + x22x88x1 + x57x88x1 + x245x88x1 + x191x88x1 + x216x88x1 
- x88x0x1

= 0
x201x88x2 + x4x88x2 + x119x88x2 + x110x88x2 + x231x88x2 + x245x88x2 + x216x88x2 
- x88x0x2

= 0



x201x97x2 + x4x97x2 + x119x97x2 + x110x97x2 + x231x97x2 + x245x97x2 + x216x97x2 
- x97x0x2

= 0
x201x97x3 + x231x97x3 + x57x97x3 + x191x97x3 
- x97x0x3

= 0


x201x109x2 + x4x109x2 + x119x109x2 + x110x109x2 + x231x109x2 + x245x109x2 + x216x109x2 
- x109x0x2

= 0


x119x114x1 + x57x114x1 + x245x114x1 + x191x114x1 + x216x114x1 
- x114x0x1

= 0
x201x114x2 + x4x114x2 + x119x114x2 + x110x114x2 + x231x114x2 + x245x114x2 + x216x114x2 
- x114x0x2

= 0


x119x126x1 + x57x126x1 + x245x126x1 + x191x126x1 + x216x126x1 
- x126x0x1

= 0

x201x126x3 + x231x126x3 + x57x126x3 + x191x126x3 
- x126x0x3

= 0

x119x169x1 + x57x169x1 + x245x169x1 + x191x169x1 + x216x169x1 
- x169x0x1

= 0



x119x187x1 + x22x187x1 + x57x187x1 + x245x187x1 + x191x187x1 + x216x187x1 
- x187x0x1

= 0
x201x187x2 + x4x187x2 + x119x187x2 + x97x187x2 + x110x187x2 + x231x187x2 + x245x187x2 + x216x187x2 
- x187x0x2

= 0


x119x206x1 + x22x206x1 + x57x206x1 + x245x206x1 + x191x206x1 + x216x206x1 
- x206x0x1

= 0

x257x206x3 + x201x206x3 + x84x206x3 + x231x206x3 + x57x206x3 + x191x206x3 
- x206x0x3

= 0



x201x212x3 + x231x212x3 + x57x212x3 + x191x212x3 
- x212x0x3

= 0


x201x215x2 + x4x215x2 + x119x215x2 + x97x215x2 + x110x215x2 + x231x215x2 + x245x215x2 + x216x215x2 
- x215x0x2

= 0



x201x240x2 + x4x240x2 + x119x240x2 + x110x240x2 + x231x240x2 + x245x240x2 + x216x240x2 
- x240x0x2

= 0


x119x251x1 + x22x251x1 + x57x251x1 + x245x251x1 + x191x251x1 + x216x251x1 
- x251x0x1

= 0

x257x251x3 + x201x251x3 + x84x251x3 + x97x251x3 + x231x251x3 + x57x251x3 + x191x251x3 
- x251x0x3

= 0


x201x254x2 + x4x254x2 + x119x254x2 + x97x254x2 + x110x254x2 + x231x254x2 + x245x254x2 + x216x254x2 
- x254x0x2

= 0
x257x254x3 + x201x254x3 + x84x254x3 + x97x254x3 + x231x254x3 + x57x254x3 + x191x254x3 
- x254x0x3

= 0

x119x261x1 + x57x261x1 + x245x261x1 + x191x261x1 + x216x261x1 
- x261x0x1

= 0

x201x261x3 + x231x261x3 + x57x261x3 + x191x261x3 
- x261x0x3

= 0

1y3 - x201x3x2 - x4x3x2 - x119x3x2 - x97x3x2 - x110x3x2 - x231x3x2 - x245x3x2 - x216x3x2 = 0
1y3 - x257x3x3 - x201x3x3 - x84x3x3 - x97x3x3 - x231x3x3 - x57x3x3 - x191x3x3 = 0
2y16 - x201x16x2 - x4x16x2 - x119x16x2 - x97x16x2 - x110x16x2 - x231x16x2 - x245x16x2 - x216x16x2 = 0
2y22 - x119x22x1 - x57x22x1 - x245x22x1 - x191x22x1 - x216x22x1 = 0
2y26 - x119x26x1 - x57x26x1 - x245x26x1 - x191x26x1 - x216x26x1 = 0
1y58 - x201x58x2 - x4x58x2 - x119x58x2 - x110x58x2 - x231x58x2 - x245x58x2 - x216x58x2 = 0
1y58 - x201x58x3 - x231x58x3 - x57x58x3 - x191x58x3 = 0
2y66 - x119x66x1 - x22x66x1 - x57x66x1 - x245x66x1 - x191x66x1 - x216x66x1 = 0
2y84 - x201x84x3 - x231x84x3 - x57x84x3 - x191x84x3 = 0
2y87 - x119x87x1 - x57x87x1 - x245x87x1 - x191x87x1 - x216x87x1 = 0
1y88 - x119x88x1 - x22x88x1 - x57x88x1 - x245x88x1 - x191x88x1 - x216x88x1 = 0
1y88 - x201x88x2 - x4x88x2 - x119x88x2 - x110x88x2 - x231x88x2 - x245x88x2 - x216x88x2 = 0
1y97 - x201x97x2 - x4x97x2 - x119x97x2 - x110x97x2 - x231x97x2 - x245x97x2 - x216x97x2 = 0
1y97 - x201x97x3 - x231x97x3 - x57x97x3 - x191x97x3 = 0
2y109 - x201x109x2 - x4x109x2 - x119x109x2 - x110x109x2 - x231x109x2 - x245x109x2 - x216x109x2 = 0
1y114 - x119x114x1 - x57x114x1 - x245x114x1 - x191x114x1 - x216x114x1 = 0
1y114 - x201x114x2 - x4x114x2 - x119x114x2 - x110x114x2 - x231x114x2 - x245x114x2 - x216x114x2 = 0
1y126 - x119x126x1 - x57x126x1 - x245x126x1 - x191x126x1 - x216x126x1 = 0
1y126 - x201x126x3 - x231x126x3 - x57x126x3 - x191x126x3 = 0
2y169 - x119x169x1 - x57x169x1 - x245x169x1 - x191x169x1 - x216x169x1 = 0
1y187 - x119x187x1 - x22x187x1 - x57x187x1 - x245x187x1 - x191x187x1 - x216x187x1 = 0
1y187 - x201x187x2 - x4x187x2 - x119x187x2 - x97x187x2 - x110x187x2 - x231x187x2 - x245x187x2 - x216x187x2 = 0
1y206 - x119x206x1 - x22x206x1 - x57x206x1 - x245x206x1 - x191x206x1 - x216x206x1 = 0
1y206 - x257x206x3 - x201x206x3 - x84x206x3 - x231x206x3 - x57x206x3 - x191x206x3 = 0
2y212 - x201x212x3 - x231x212x3 - x57x212x3 - x191x212x3 = 0
2y215 - x201x215x2 - x4x215x2 - x119x215x2 - x97x215x2 - x110x215x2 - x231x215x2 - x245x215x2 - x216x215x2 = 0
2y240 - x201x240x2 - x4x240x2 - x119x240x2 - x110x240x2 - x231x240x2 - x245x240x2 - x216x240x2 = 0
1y251 - x119x251x1 - x22x251x1 - x57x251x1 - x245x251x1 - x191x251x1 - x216x251x1 = 0
1y251 - x257x251x3 - x201x251x3 - x84x251x3 - x97x251x3 - x231x251x3 - x57x251x3 - x191x251x3 = 0
1y254 - x201x254x2 - x4x254x2 - x119x254x2 - x97x254x2 - x110x254x2 - x231x254x2 - x245x254x2 - x216x254x2 = 0
1y254 - x257x254x3 - x201x254x3 - x84x254x3 - x97x254x3 - x231x254x3 - x57x254x3 - x191x254x3 = 0
1y261 - x119x261x1 - x57x261x1 - x245x261x1 - x191x261x1 - x216x261x1 = 0
1y261 - x201x261x3 - x231x261x3 - x57x261x3 - x191x261x3 = 0

s257 - s3 + 6.653460z257z3z3 <= 5.22
s257 - s206 + 6.613355z257z206z3 <= 5.22
s257 - s251 + 6.665475z257z251z3 <= 5.22
s257 - s254 + 6.650985z257z254z3 <= 5.22
s201 - s3 + 6.277384z201z3z2 <= 4.84
s201 - s3 + 6.277384z201z3z3 <= 4.84
s201 - s16 + 6.248940z201z16z2 <= 4.84
s201 - s58 + 6.097311z201z58z2 <= 4.84
s201 - s58 + 6.097311z201z58z3 <= 4.84
s201 - s84 + 6.078792z201z84z3 <= 4.84
s201 - s88 + 6.232667z201z88z2 <= 4.84
s201 - s97 + 6.092654z201z97z2 <= 4.84
s201 - s97 + 6.092654z201z97z3 <= 4.84
s201 - s109 + 6.088000z201z109z2 <= 4.84
s201 - s114 + 6.095476z201z114z2 <= 4.84
s201 - s126 + 6.032726z201z126z3 <= 4.84
s201 - s187 + 6.273126z201z187z2 <= 4.84
s201 - s206 + 6.237810z201z206z3 <= 4.84
s201 - s212 + 6.066158z201z212z3 <= 4.84
s201 - s215 + 6.286777z201z215z2 <= 4.84
s201 - s240 + 6.099305z201z240z2 <= 4.84
s201 - s251 + 6.289517z201z251z3 <= 4.84
s201 - s254 + 6.274618z201z254z2 <= 4.84
s201 - s254 + 6.274618z201z254z3 <= 4.84
s201 - s261 + 6.076907z201z261z3 <= 4.84
s4 - s3 + 6.387963z4z3z2 <= 4.92
s4 - s16 + 6.334291z4z16z2 <= 4.92
s4 - s58 + 6.262989z4z58z2 <= 4.92
s4 - s88 + 6.347366z4z88z2 <= 4.92
s4 - s97 + 6.229473z4z97z2 <= 4.92
s4 - s109 + 6.236278z4z109z2 <= 4.92
s4 - s114 + 6.248657z4z114z2 <= 4.92
s4 - s187 + 6.396748z4z187z2 <= 4.92
s4 - s215 + 6.386252z4z215z2 <= 4.92
s4 - s240 + 6.241562z4z240z2 <= 4.92
s4 - s254 + 6.377217z4z254z2 <= 4.92
s119 - s3 + 6.371772z119z3z2 <= 4.94
s119 - s16 + 6.320330z119z16z2 <= 4.94
s119 - s22 + 6.178602z119z22z1 <= 4.94
s119 - s26 + 6.201462z119z26z1 <= 4.94
s119 - s58 + 6.243625z119z58z2 <= 4.94
s119 - s66 + 6.376248z119z66z1 <= 4.94
s119 - s87 + 6.216697z119z87z1 <= 4.94
s119 - s88 + 6.330534z119z88z1 <= 4.94
s119 - s88 + 6.330534z119z88z2 <= 4.94
s119 - s97 + 6.210475z119z97z2 <= 4.94
s119 - s109 + 6.217021z119z109z2 <= 4.94
s119 - s114 + 6.229356z119z114z1 <= 4.94
s119 - s114 + 6.229356z119z114z2 <= 4.94
s119 - s126 + 6.181498z119z126z1 <= 4.94
s119 - s169 + 6.189623z119z169z1 <= 4.94
s119 - s187 + 6.379513z119z187z1 <= 4.94
s119 - s187 + 6.379513z119z187z2 <= 4.94
s119 - s206 + 6.349032z119z206z1 <= 4.94
s119 - s215 + 6.371151z119z215z2 <= 4.94
s119 - s240 + 6.222464z119z240z2 <= 4.94
s119 - s251 + 6.386168z119z251z1 <= 4.94
s119 - s254 + 6.361723z119z254z2 <= 4.94
s119 - s261 + 6.212126z119z261z1 <= 4.94
s84 - s3 + 6.709313z84z3z3 <= 5.51
s84 - s206 + 6.667783z84z206z3 <= 5.51
s84 - s251 + 6.720628z84z251z3 <= 5.51
s84 - s254 + 6.709313z84z254z3 <= 5.51
s22 - s66 + 6.686656z22z66z1 <= 5.46
s22 - s88 + 6.635952z22z88z1 <= 5.46
s22 - s187 + 6.677168z22z187z1 <= 5.46
s22 - s206 + 6.642420z22z206z1 <= 5.46
s22 - s251 + 6.692769z22z251z1 <= 5.46
s97 - s3 + 6.892514z97z3z2 <= 5.71
s97 - s3 + 6.892514z97z3z3 <= 5.71
s97 - s16 + 6.874442z97z16z2 <= 5.71
s97 - s187 + 6.888995z97z187z2 <= 5.71
s97 - s215 + 6.903715z97z215z2 <= 5.71
s97 - s251 + 6.904507z97z251z3 <= 5.71
s97 - s254 + 6.891067z97z254z2 <= 5.71
s97 - s254 + 6.891067z97z254z3 <= 5.71
s110 - s3 + 6.133815z110z3z2 <= 4.37
s110 - s16 + 6.068173z110z16z2 <= 4.37
s110 - s58 + 6.040713z110z58z2 <= 4.37
s110 - s88 + 6.099196z110z88z2 <= 4.37
s110 - s97 + 6.001240z110z97z2 <= 4.37
s110 - s109 + 6.010981z110z109z2 <= 4.37
s110 - s114 + 6.023971z110z114z2 <= 4.37
s110 - s187 + 6.149968z110z187z2 <= 4.37
s110 - s215 + 6.124715z110z215z2 <= 4.37
s110 - s240 + 6.014150z110z240z2 <= 4.37
s110 - s254 + 6.118705z110z254z2 <= 4.37
s231 - s3 + 6.166564z231z3z2 <= 4.54
s231 - s3 + 6.166564z231z3z3 <= 4.54
s231 - s16 + 6.108787z231z16z2 <= 4.54
s231 - s58 + 6.045212z231z58z2 <= 4.54
s231 - s58 + 6.045212z231z58z3 <= 4.54
s231 - s84 + 6.010371z231z84z3 <= 4.54
s231 - s88 + 6.127276z231z88z2 <= 4.54
s231 - s97 + 6.012356z231z97z2 <= 4.54
s231 - s97 + 6.012356z231z97z3 <= 4.54
s231 - s109 + 6.019099z231z109z2 <= 4.54
s231 - s114 + 6.031401z231z114z2 <= 4.54
s231 - s126 + 5.981796z231z126z3 <= 4.54
s231 - s187 + 6.177239z231z187z2 <= 4.54
s231 - s206 + 6.148246z231z206z3 <= 4.54
s231 - s212 + 5.995502z231z212z3 <= 4.54
s231 - s215 + 6.162715z231z215z2 <= 4.54
s231 - s240 + 6.024462z231z240z2 <= 4.54
s231 - s251 + 6.181279z231z251z3 <= 4.54
s231 - s254 + 6.154510z231z254z2 <= 4.54
s231 - s254 + 6.154510z231z254z3 <= 4.54
s231 - s261 + 6.014050z231z261z3 <= 4.54
s57 - s3 + 6.197176z57z3z3 <= 4.58
s57 - s22 + 6.016334z57z22z1 <= 4.58
s57 - s26 + 6.039486z57z26z1 <= 4.58
s57 - s58 + 6.081646z57z58z3 <= 4.58
s57 - s66 + 6.200932z57z66z1 <= 4.58
s57 - s84 + 6.045938z57z84z3 <= 4.58
s57 - s87 + 6.052256z57z87z1 <= 4.58
s57 - s88 + 6.158631z57z88z1 <= 4.58
s57 - s97 + 6.046981z57z97z3 <= 4.58
s57 - s114 + 6.067013z57z114z1 <= 4.58
s57 - s126 + 6.019212z57z126z1 <= 4.58
s57 - s126 + 6.019212z57z126z3 <= 4.58
s57 - s169 + 6.025957z57z169z1 <= 4.58
s57 - s187 + 6.208869z57z187z1 <= 4.58
s57 - s206 + 6.180595z57z206z1 <= 4.58
s57 - s206 + 6.180595z57z206z3 <= 4.58
s57 - s212 + 6.031133z57z212z3 <= 4.58
s57 - s251 + 6.211960z57z251z1 <= 4.58
s57 - s251 + 6.211960z57z251z3 <= 4.58
s57 - s254 + 6.184564z57z254z3 <= 4.58
s57 - s261 + 6.050003z57z261z1 <= 4.58
s57 - s261 + 6.050003z57z261z3 <= 4.58
s245 - s3 + 6.348526z245z3z2 <= 4.60
s245 - s16 + 6.281699z245z16z2 <= 4.60
s245 - s22 + 6.195874z245z22z1 <= 4.60
s245 - s26 + 6.221256z245z26z1 <= 4.60
s245 - s58 + 6.262772z245z58z2 <= 4.60
s245 - s66 + 6.351171z245z66z1 <= 4.60
s245 - s87 + 6.224441z245z87z1 <= 4.60
s245 - s88 + 6.315008z245z88z1 <= 4.60
s245 - s88 + 6.315008z245z88z2 <= 4.60
s245 - s97 + 6.221579z245z97z2 <= 4.60
s245 - s109 + 6.232103z245z109z2 <= 4.60
s245 - s114 + 6.245224z245z114z1 <= 4.60
s245 - s114 + 6.245224z245z114z2 <= 4.60
s245 - s126 + 6.204823z245z126z1 <= 4.60
s245 - s169 + 6.200644z245z169z1 <= 4.60
s245 - s187 + 6.365738z245z187z1 <= 4.60
s245 - s187 + 6.365738z245z187z2 <= 4.60
s245 - s206 + 6.341830z245z206z1 <= 4.60
s245 - s215 + 6.338459z245z215z2 <= 4.60
s245 - s240 + 6.234637z245z240z2 <= 4.60
s245 - s251 + 6.363407z245z251z1 <= 4.60
s245 - s254 + 6.332887z245z254z2 <= 4.60
s245 - s261 + 6.229843z245z261z1 <= 4.60
s191 - s3 + 6.254712z191z3z3 <= 4.73
s191 - s22 + 6.040588z191z22z1 <= 4.73
s191 - s26 + 6.056914z191z26z1 <= 4.73
s191 - s58 + 6.097008z191z58z3 <= 4.73
s191 - s66 + 6.259885z191z66z1 <= 4.73
s191 - s84 + 6.069478z191z84z3 <= 4.73
s191 - s87 + 6.087157z191z87z1 <= 4.73
s191 - s88 + 6.211199z191z88z1 <= 4.73
s191 - s97 + 6.077857z191z97z3 <= 4.73
s191 - s114 + 6.089137z191z114z1 <= 4.73
s191 - s126 + 6.030368z191z126z1 <= 4.73
s191 - s126 + 6.030368z191z126z3 <= 4.73
s191 - s169 + 6.058873z191z169z1 <= 4.73
s191 - s187 + 6.257200z191z187z1 <= 4.73
s191 - s206 + 6.223887z191z206z1 <= 4.73
s191 - s206 + 6.223887z191z206z3 <= 4.73
s191 - s212 + 6.055012z191z212z3 <= 4.73
s191 - s251 + 6.268354z191z251z1 <= 4.73
s191 - s251 + 6.268354z191z251z3 <= 4.73
s191 - s254 + 6.247563z191z254z3 <= 4.73
s191 - s261 + 6.070390z191z261z1 <= 4.73
s191 - s261 + 6.070390z191z261z3 <= 4.73
s216 - s3 + 6.291028z216z3z2 <= 4.79
s216 - s16 + 6.250082z216z16z2 <= 4.79
s216 - s22 + 6.074595z216z22z1 <= 4.79
s216 - s26 + 6.090022z216z26z1 <= 4.79
s216 - s58 + 6.129669z216z58z2 <= 4.79
s216 - s66 + 6.296335z216z66z1 <= 4.79
s216 - s87 + 6.121996z216z87z1 <= 4.79
s216 - s88 + 6.247193z216z88z1 <= 4.79
s216 - s88 + 6.247193z216z88z2 <= 4.79
s216 - s97 + 6.112304z216z97z2 <= 4.79
s216 - s109 + 6.112576z216z109z2 <= 4.79
s216 - s114 + 6.122526z216z114z1 <= 4.79
s216 - s114 + 6.122526z216z114z2 <= 4.79
s216 - s126 + 6.063004z216z126z1 <= 4.79
s216 - s169 + 6.093740z216z169z1 <= 4.79
s216 - s187 + 6.292481z216z187z1 <= 4.79
s216 - s187 + 6.292481z216z187z2 <= 4.79
s216 - s206 + 6.258781z216z206z1 <= 4.79
s216 - s215 + 6.295506z216z215z2 <= 4.79
s216 - s240 + 6.121731z216z240z2 <= 4.79
s216 - s251 + 6.304473z216z251z1 <= 4.79
s216 - s254 + 6.284550z216z254z2 <= 4.79
s216 - s261 + 6.103720z216z261z1 <= 4.79

x257x3x3 - 1z257z3z3 <= 0
x257x206x3 - 1z257z206z3 <= 0
x257x251x3 - 1z257z251z3 <= 0
x257x254x3 - 1z257z254z3 <= 0
x201x3x2 - 1z201z3z2 <= 0
x201x3x3 - 1z201z3z3 <= 0
x201x16x2 - 2z201z16z2 <= 0
x201x58x2 - 1z201z58z2 <= 0
x201x58x3 - 1z201z58z3 <= 0
x201x84x3 - 2z201z84z3 <= 0
x201x88x2 - 1z201z88z2 <= 0
x201x97x2 - 1z201z97z2 <= 0
x201x97x3 - 1z201z97z3 <= 0
x201x109x2 - 2z201z109z2 <= 0
x201x114x2 - 1z201z114z2 <= 0
x201x126x3 - 1z201z126z3 <= 0
x201x187x2 - 1z201z187z2 <= 0
x201x206x3 - 1z201z206z3 <= 0
x201x212x3 - 2z201z212z3 <= 0
x201x215x2 - 2z201z215z2 <= 0
x201x240x2 - 2z201z240z2 <= 0
x201x251x3 - 1z201z251z3 <= 0
x201x254x2 - 1z201z254z2 <= 0
x201x254x3 - 1z201z254z3 <= 0
x201x261x3 - 1z201z261z3 <= 0
x4x3x2 - 1z4z3z2 <= 0
x4x16x2 - 2z4z16z2 <= 0
x4x58x2 - 1z4z58z2 <= 0
x4x88x2 - 1z4z88z2 <= 0
x4x97x2 - 1z4z97z2 <= 0
x4x109x2 - 2z4z109z2 <= 0
x4x114x2 - 1z4z114z2 <= 0
x4x187x2 - 1z4z187z2 <= 0
x4x215x2 - 2z4z215z2 <= 0
x4x240x2 - 2z4z240z2 <= 0
x4x254x2 - 1z4z254z2 <= 0
x119x3x2 - 1z119z3z2 <= 0
x119x16x2 - 2z119z16z2 <= 0
x119x22x1 - 2z119z22z1 <= 0
x119x26x1 - 2z119z26z1 <= 0
x119x58x2 - 1z119z58z2 <= 0
x119x66x1 - 2z119z66z1 <= 0
x119x87x1 - 2z119z87z1 <= 0
x119x88x1 - 1z119z88z1 <= 0
x119x88x2 - 1z119z88z2 <= 0
x119x97x2 - 1z119z97z2 <= 0
x119x109x2 - 2z119z109z2 <= 0
x119x114x1 - 1z119z114z1 <= 0
x119x114x2 - 1z119z114z2 <= 0
x119x126x1 - 1z119z126z1 <= 0
x119x169x1 - 2z119z169z1 <= 0
x119x187x1 - 1z119z187z1 <= 0
x119x187x2 - 1z119z187z2 <= 0
x119x206x1 - 1z119z206z1 <= 0
x119x215x2 - 2z119z215z2 <= 0
x119x240x2 - 2z119z240z2 <= 0
x119x251x1 - 1z119z251z1 <= 0
x119x254x2 - 1z119z254z2 <= 0
x119x261x1 - 1z119z261z1 <= 0
x84x3x3 - 1z84z3z3 <= 0
x84x206x3 - 1z84z206z3 <= 0
x84x251x3 - 1z84z251z3 <= 0
x84x254x3 - 1z84z254z3 <= 0
x22x66x1 - 2z22z66z1 <= 0
x22x88x1 - 1z22z88z1 <= 0
x22x187x1 - 1z22z187z1 <= 0
x22x206x1 - 1z22z206z1 <= 0
x22x251x1 - 1z22z251z1 <= 0
x97x3x2 - 1z97z3z2 <= 0
x97x3x3 - 1z97z3z3 <= 0
x97x16x2 - 2z97z16z2 <= 0
x97x187x2 - 1z97z187z2 <= 0
x97x215x2 - 2z97z215z2 <= 0
x97x251x3 - 1z97z251z3 <= 0
x97x254x2 - 1z97z254z2 <= 0
x97x254x3 - 1z97z254z3 <= 0
x110x3x2 - 1z110z3z2 <= 0
x110x16x2 - 2z110z16z2 <= 0
x110x58x2 - 1z110z58z2 <= 0
x110x88x2 - 1z110z88z2 <= 0
x110x97x2 - 1z110z97z2 <= 0
x110x109x2 - 2z110z109z2 <= 0
x110x114x2 - 1z110z114z2 <= 0
x110x187x2 - 1z110z187z2 <= 0
x110x215x2 - 2z110z215z2 <= 0
x110x240x2 - 2z110z240z2 <= 0
x110x254x2 - 1z110z254z2 <= 0
x231x3x2 - 1z231z3z2 <= 0
x231x3x3 - 1z231z3z3 <= 0
x231x16x2 - 2z231z16z2 <= 0
x231x58x2 - 1z231z58z2 <= 0
x231x58x3 - 1z231z58z3 <= 0
x231x84x3 - 2z231z84z3 <= 0
x231x88x2 - 1z231z88z2 <= 0
x231x97x2 - 1z231z97z2 <= 0
x231x97x3 - 1z231z97z3 <= 0
x231x109x2 - 2z231z109z2 <= 0
x231x114x2 - 1z231z114z2 <= 0
x231x126x3 - 1z231z126z3 <= 0
x231x187x2 - 1z231z187z2 <= 0
x231x206x3 - 1z231z206z3 <= 0
x231x212x3 - 2z231z212z3 <= 0
x231x215x2 - 2z231z215z2 <= 0
x231x240x2 - 2z231z240z2 <= 0
x231x251x3 - 1z231z251z3 <= 0
x231x254x2 - 1z231z254z2 <= 0
x231x254x3 - 1z231z254z3 <= 0
x231x261x3 - 1z231z261z3 <= 0
x57x3x3 - 1z57z3z3 <= 0
x57x22x1 - 2z57z22z1 <= 0
x57x26x1 - 2z57z26z1 <= 0
x57x58x3 - 1z57z58z3 <= 0
x57x66x1 - 2z57z66z1 <= 0
x57x84x3 - 2z57z84z3 <= 0
x57x87x1 - 2z57z87z1 <= 0
x57x88x1 - 1z57z88z1 <= 0
x57x97x3 - 1z57z97z3 <= 0
x57x114x1 - 1z57z114z1 <= 0
x57x126x1 - 1z57z126z1 <= 0
x57x126x3 - 1z57z126z3 <= 0
x57x169x1 - 2z57z169z1 <= 0
x57x187x1 - 1z57z187z1 <= 0
x57x206x1 - 1z57z206z1 <= 0
x57x206x3 - 1z57z206z3 <= 0
x57x212x3 - 2z57z212z3 <= 0
x57x251x1 - 1z57z251z1 <= 0
x57x251x3 - 1z57z251z3 <= 0
x57x254x3 - 1z57z254z3 <= 0
x57x261x1 - 1z57z261z1 <= 0
x57x261x3 - 1z57z261z3 <= 0
x245x3x2 - 1z245z3z2 <= 0
x245x16x2 - 2z245z16z2 <= 0
x245x22x1 - 2z245z22z1 <= 0
x245x26x1 - 2z245z26z1 <= 0
x245x58x2 - 1z245z58z2 <= 0
x245x66x1 - 2z245z66z1 <= 0
x245x87x1 - 2z245z87z1 <= 0
x245x88x1 - 1z245z88z1 <= 0
x245x88x2 - 1z245z88z2 <= 0
x245x97x2 - 1z245z97z2 <= 0
x245x109x2 - 2z245z109z2 <= 0
x245x114x1 - 1z245z114z1 <= 0
x245x114x2 - 1z245z114z2 <= 0
x245x126x1 - 1z245z126z1 <= 0
x245x169x1 - 2z245z169z1 <= 0
x245x187x1 - 1z245z187z1 <= 0
x245x187x2 - 1z245z187z2 <= 0
x245x206x1 - 1z245z206z1 <= 0
x245x215x2 - 2z245z215z2 <= 0
x245x240x2 - 2z245z240z2 <= 0
x245x251x1 - 1z245z251z1 <= 0
x245x254x2 - 1z245z254z2 <= 0
x245x261x1 - 1z245z261z1 <= 0
x191x3x3 - 1z191z3z3 <= 0
x191x22x1 - 2z191z22z1 <= 0
x191x26x1 - 2z191z26z1 <= 0
x191x58x3 - 1z191z58z3 <= 0
x191x66x1 - 2z191z66z1 <= 0
x191x84x3 - 2z191z84z3 <= 0
x191x87x1 - 2z191z87z1 <= 0
x191x88x1 - 1z191z88z1 <= 0
x191x97x3 - 1z191z97z3 <= 0
x191x114x1 - 1z191z114z1 <= 0
x191x126x1 - 1z191z126z1 <= 0
x191x126x3 - 1z191z126z3 <= 0
x191x169x1 - 2z191z169z1 <= 0
x191x187x1 - 1z191z187z1 <= 0
x191x206x1 - 1z191z206z1 <= 0
x191x206x3 - 1z191z206z3 <= 0
x191x212x3 - 2z191z212z3 <= 0
x191x251x1 - 1z191z251z1 <= 0
x191x251x3 - 1z191z251z3 <= 0
x191x254x3 - 1z191z254z3 <= 0
x191x261x1 - 1z191z261z1 <= 0
x191x261x3 - 1z191z261z3 <= 0
x216x3x2 - 1z216z3z2 <= 0
x216x16x2 - 2z216z16z2 <= 0
x216x22x1 - 2z216z22z1 <= 0
x216x26x1 - 2z216z26z1 <= 0
x216x58x2 - 1z216z58z2 <= 0
x216x66x1 - 2z216z66z1 <= 0
x216x87x1 - 2z216z87z1 <= 0
x216x88x1 - 1z216z88z1 <= 0
x216x88x2 - 1z216z88z2 <= 0
x216x97x2 - 1z216z97z2 <= 0
x216x109x2 - 2z216z109z2 <= 0
x216x114x1 - 1z216z114z1 <= 0
x216x114x2 - 1z216z114z2 <= 0
x216x126x1 - 1z216z126z1 <= 0
x216x169x1 - 2z216z169z1 <= 0
x216x187x1 - 1z216z187z1 <= 0
x216x187x2 - 1z216z187z2 <= 0
x216x206x1 - 1z216z206z1 <= 0
x216x215x2 - 2z216z215z2 <= 0
x216x240x2 - 2z216z240z2 <= 0
x216x251x1 - 1z216z251z1 <= 0
x216x254x2 - 1z216z254z2 <= 0
x216x261x1 - 1z216z261z1 <= 0
x3x0x2 <= 1
x3x0x3 <= 1
x16x0x2 <= 2
x22x0x1 <= 2
x26x0x1 <= 2
x58x0x2 <= 1
x58x0x3 <= 1
x66x0x1 <= 2
x84x0x3 <= 2
x87x0x1 <= 2
x88x0x1 <= 1
x88x0x2 <= 1
x97x0x2 <= 1
x97x0x3 <= 1
x109x0x2 <= 2
x114x0x1 <= 1
x114x0x2 <= 1
x126x0x1 <= 1
x126x0x3 <= 1
x169x0x1 <= 2
x187x0x1 <= 1
x187x0x2 <= 1
x206x0x1 <= 1
x206x0x3 <= 1
x212x0x3 <= 2
x215x0x2 <= 2
x240x0x2 <= 2
x251x0x1 <= 1
x251x0x3 <= 1
x254x0x2 <= 1
x254x0x3 <= 1
x261x0x1 <= 1
x261x0x3 <= 1

Bounds
s257 = 5.221153
s201 = 4.842055
s4 = 4.919348
s119 = 4.942147
s84 = 5.508758
s22 = 5.457067
s97 = 5.707642
s169 = 5.977582
s110 = 4.367380
s231 = 4.541140
s57 = 4.577750
s245 = 4.601830
s191 = 4.728890
s216 = 4.787000
6.000000 <= s3 <= 6.950000
6.000000 <= s16 <= 6.970000
6.000000 <= s22 <= 6.390000
6.000000 <= s26 <= 6.300000
6.000000 <= s58 <= 6.310000
6.000000 <= s66 <= 6.970000
6.000000 <= s84 <= 6.370000
6.000000 <= s87 <= 6.490000
6.000000 <= s88 <= 6.810000
6.000000 <= s97 <= 6.450000
6.000000 <= s109 <= 6.380000
6.000000 <= s114 <= 6.360000
6.000000 <= s126 <= 6.240000
6.000000 <= s169 <= 6.470000
6.000000 <= s187 <= 6.920000
6.000000 <= s206 <= 6.790000
6.000000 <= s212 <= 6.370000
6.000000 <= s215 <= 7.000000
6.000000 <= s240 <= 6.420000
6.000000 <= s251 <= 6.980000
6.000000 <= s254 <= 6.960000
6.000000 <= s261 <= 6.340000

General
x257x3x3 x257x206x3 x257x251x3 x257x254x3 
x201x3x2 x201x3x3 x201x16x2 x201x58x2 x201x58x3 x201x84x3 x201x88x2 x201x97x2 x201x97x3 x201x109x2 x201x114x2 x201x126x3 x201x187x2 x201x206x3 x201x212x3 x201x215x2 x201x240x2 x201x251x3 x201x254x2 x201x254x3 x201x261x3 
x4x3x2 x4x16x2 x4x58x2 x4x88x2 x4x97x2 x4x109x2 x4x114x2 x4x187x2 x4x215x2 x4x240x2 x4x254x2 
x119x3x2 x119x16x2 x119x22x1 x119x26x1 x119x58x2 x119x66x1 x119x87x1 x119x88x1 x119x88x2 x119x97x2 x119x109x2 x119x114x1 x119x114x2 x119x126x1 x119x169x1 x119x187x1 x119x187x2 x119x206x1 x119x215x2 x119x240x2 x119x251x1 x119x254x2 x119x261x1 
x84x3x3 x84x206x3 x84x251x3 x84x254x3 
x22x66x1 x22x88x1 x22x187x1 x22x206x1 x22x251x1 
x97x3x2 x97x3x3 x97x16x2 x97x187x2 x97x215x2 x97x251x3 x97x254x2 x97x254x3 

x110x3x2 x110x16x2 x110x58x2 x110x88x2 x110x97x2 x110x109x2 x110x114x2 x110x187x2 x110x215x2 x110x240x2 x110x254x2 
x231x3x2 x231x3x3 x231x16x2 x231x58x2 x231x58x3 x231x84x3 x231x88x2 x231x97x2 x231x97x3 x231x109x2 x231x114x2 x231x126x3 x231x187x2 x231x206x3 x231x212x3 x231x215x2 x231x240x2 x231x251x3 x231x254x2 x231x254x3 x231x261x3 
x57x3x3 x57x22x1 x57x26x1 x57x58x3 x57x66x1 x57x84x3 x57x87x1 x57x88x1 x57x97x3 x57x114x1 x57x126x1 x57x126x3 x57x169x1 x57x187x1 x57x206x1 x57x206x3 x57x212x3 x57x251x1 x57x251x3 x57x254x3 x57x261x1 x57x261x3 
x245x3x2 x245x16x2 x245x22x1 x245x26x1 x245x58x2 x245x66x1 x245x87x1 x245x88x1 x245x88x2 x245x97x2 x245x109x2 x245x114x1 x245x114x2 x245x126x1 x245x169x1 x245x187x1 x245x187x2 x245x206x1 x245x215x2 x245x240x2 x245x251x1 x245x254x2 x245x261x1 
x191x3x3 x191x22x1 x191x26x1 x191x58x3 x191x66x1 x191x84x3 x191x87x1 x191x88x1 x191x97x3 x191x114x1 x191x126x1 x191x126x3 x191x169x1 x191x187x1 x191x206x1 x191x206x3 x191x212x3 x191x251x1 x191x251x3 x191x254x3 x191x261x1 x191x261x3 
x216x3x2 x216x16x2 x216x22x1 x216x26x1 x216x58x2 x216x66x1 x216x87x1 x216x88x1 x216x88x2 x216x97x2 x216x109x2 x216x114x1 x216x114x2 x216x126x1 x216x169x1 x216x187x1 x216x187x2 x216x206x1 x216x215x2 x216x240x2 x216x251x1 x216x254x2 x216x261x1 
x3x0x2 x3x0x3 
x16x0x2 
x22x0x1 
x26x0x1 
x58x0x2 x58x0x3 
x66x0x1 
x84x0x3 
x87x0x1 
x88x0x1 x88x0x2 
x97x0x2 x97x0x3 
x109x0x2 
x114x0x1 x114x0x2 
x126x0x1 x126x0x3 
x169x0x1 
x187x0x1 x187x0x2 
x206x0x1 x206x0x3 
x212x0x3 
x215x0x2 
x240x0x2 
x251x0x1 x251x0x3 
x254x0x2 x254x0x3 
x261x0x1 x261x0x3 

Binaries
y3 y16 y22 y26 y58 y66 y84 y87 y88 y97 y109 y114 y126 y169 y187 y206 y212 y215 y240 y251 y254 y261 
z257z3z3 z257z206z3 z257z251z3 z257z254z3 
z201z3z2 z201z3z3 z201z16z2 z201z58z2 z201z58z3 z201z84z3 z201z88z2 z201z97z2 z201z97z3 z201z109z2 z201z114z2 z201z126z3 z201z187z2 z201z206z3 z201z212z3 z201z215z2 z201z240z2 z201z251z3 z201z254z2 z201z254z3 z201z261z3 
z4z3z2 z4z16z2 z4z58z2 z4z88z2 z4z97z2 z4z109z2 z4z114z2 z4z187z2 z4z215z2 z4z240z2 z4z254z2 
z119z3z2 z119z16z2 z119z22z1 z119z26z1 z119z58z2 z119z66z1 z119z87z1 z119z88z1 z119z88z2 z119z97z2 z119z109z2 z119z114z1 z119z114z2 z119z126z1 z119z169z1 z119z187z1 z119z187z2 z119z206z1 z119z215z2 z119z240z2 z119z251z1 z119z254z2 z119z261z1 
z84z3z3 z84z206z3 z84z251z3 z84z254z3 
z22z66z1 z22z88z1 z22z187z1 z22z206z1 z22z251z1 
z97z3z2 z97z3z3 z97z16z2 z97z187z2 z97z215z2 z97z251z3 z97z254z2 z97z254z3 

z110z3z2 z110z16z2 z110z58z2 z110z88z2 z110z97z2 z110z109z2 z110z114z2 z110z187z2 z110z215z2 z110z240z2 z110z254z2 
z231z3z2 z231z3z3 z231z16z2 z231z58z2 z231z58z3 z231z84z3 z231z88z2 z231z97z2 z231z97z3 z231z109z2 z231z114z2 z231z126z3 z231z187z2 z231z206z3 z231z212z3 z231z215z2 z231z240z2 z231z251z3 z231z254z2 z231z254z3 z231z261z3 
z57z3z3 z57z22z1 z57z26z1 z57z58z3 z57z66z1 z57z84z3 z57z87z1 z57z88z1 z57z97z3 z57z114z1 z57z126z1 z57z126z3 z57z169z1 z57z187z1 z57z206z1 z57z206z3 z57z212z3 z57z251z1 z57z251z3 z57z254z3 z57z261z1 z57z261z3 
z245z3z2 z245z16z2 z245z22z1 z245z26z1 z245z58z2 z245z66z1 z245z87z1 z245z88z1 z245z88z2 z245z97z2 z245z109z2 z245z114z1 z245z114z2 z245z126z1 z245z169z1 z245z187z1 z245z187z2 z245z206z1 z245z215z2 z245z240z2 z245z251z1 z245z254z2 z245z261z1 
z191z3z3 z191z22z1 z191z26z1 z191z58z3 z191z66z1 z191z84z3 z191z87z1 z191z88z1 z191z97z3 z191z114z1 z191z126z1 z191z126z3 z191z169z1 z191z187z1 z191z206z1 z191z206z3 z191z212z3 z191z251z1 z191z251z3 z191z254z3 z191z261z1 z191z261z3 
z216z3z2 z216z16z2 z216z22z1 z216z26z1 z216z58z2 z216z66z1 z216z87z1 z216z88z1 z216z88z2 z216z97z2 z216z109z2 z216z114z1 z216z114z2 z216z126z1 z216z169z1 z216z187z1 z216z187z2 z216z206z1 z216z215z2 z216z240z2 z216z251z1 z216z254z2 z216z261z1 























End